qbf_easy_train/easy_5100_SAT.qdimacs
p cnf 28 77
a 24 4 21 0
e 1 2 3 5 6 7 8 9 10 11 12 13 14 15 16 17 18 19 20 22 23 25 26 27 28 0
1 -2 -3 0
-1 2 -3 0
1 2 3 0
-1 -2 3 0
2 -4 -5 0
-2 4 -5 0
2 4 5 0
-2 -4 5 0
-2 6 -7 0
2 -6 -7 0
-2 -6 7 0
2 6 7 0
8 7 0
8 2 0
-7 -2 -8 0
5 8 -9 0
-5 -8 -9 0
5 -8 9 0
-5 8 9 0
-12 -10 0
-12 -11 0
10 11 12 0
-13 7 0
-13 -12 0
-7 12 13 0
-13 14 0
13 14 0
-14 -15 -16 0
14 15 -16 0
-14 15 16 0
14 -15 16 0
17 9 0
17 16 0
-9 -16 -17 0
-3 17 -18 0
3 -17 -18 0
-3 -17 18 0
3 17 18 0
-7 -11 -19 0
7 11 -19 0
-7 11 19 0
7 -11 19 0
-20 -19 0
-20 8 0
19 -8 20 0
21 13 0
21 15 0
-13 -15 -21 0
-22 -20 0
-22 -21 0
20 21 22 0
18 22 -23 0
-18 -22 -23 0
18 -22 23 0
-18 22 23 0
25 24 0
25 4 0
-24 -4 -25 0
-10 -16 -26 0
10 16 -26 0
-10 16 26 0
10 -16 26 0
-25 26 -27 0
25 -26 -27 0
-25 -26 27 0
25 26 27 0
28 23 0
28 -27 0
-23 27 -28 0
-1 23 14 -22 -10 18 -13 8 0
8 24 14 -2 -22 0
9 -27 18 11 0
-10 26 -20 6 -23 0
-3 -6 -21 1 -10 -14 -11 12 0
-22 3 -23 -11 13 0
17 -15 -2 0
28 0
