sat_easy_train/easy_5100_SAT.dimacs
p cnf 149 510
-4 -2 0
-4 3 0
2 -3 4 0
1 -4 -5 0
-1 4 -5 0
1 4 5 0
-1 -4 5 0
2 -6 -7 0
-2 6 -7 0
2 6 7 0
-2 -6 7 0
9 7 0
9 -8 0
-7 8 -9 0
11 -6 0
11 -10 0
6 10 -11 0
13 11 0
13 -12 0
-11 12 -13 0
14 9 0
14 13 0
-9 -13 -14 0
15 5 0
15 14 0
-5 -14 -15 0
17 9 0
17 16 0
-9 -16 -17 0
15 17 -18 0
-15 -17 -18 0
15 -17 18 0
-15 17 18 0
21 10 0
21 4 0
-10 -4 -21 0
-23 21 0
-23 -22 0
-21 22 23 0
-11 23 -24 0
11 -23 -24 0
-11 -23 24 0
11 23 24 0
20 -24 -25 0
-20 24 -25 0
20 24 25 0
-20 -24 25 0
-26 25 0
-26 9 0
-25 -9 26 0
-11 -16 -27 0
11 16 -27 0
-11 16 27 0
11 -16 27 0
-28 26 0
-28 -27 0
-26 27 28 0
30 29 0
30 -20 0
-29 20 -30 0
-2 -20 -31 0
2 20 -31 0
-2 20 31 0
2 -20 31 0
32 -31 0
32 29 0
31 -29 -32 0
-32 20 -33 0
32 -20 -33 0
-32 -20 33 0
32 20 33 0
-34 30 0
-34 -33 0
-30 33 34 0
-35 -34 0
-35 30 0
34 -30 35 0
-36 28 0
-36 35 0
-28 -35 36 0
-37 19 0
-37 36 0
-19 -36 37 0
31 -8 -39 0
-31 8 -39 0
31 8 39 0
-31 -8 39 0
40 39 0
40 6 0
-39 -6 -40 0
40 -23 -41 0
-40 23 -41 0
40 23 41 0
-40 -23 41 0
42 -38 0
42 41 0
38 -41 -42 0
-30 -34 -43 0
30 34 -43 0
-30 34 43 0
30 -34 43 0
-42 43 -44 0
42 -43 -44 0
-42 -43 44 0
42 43 44 0
-37 44 -45 0
37 -44 -45 0
-37 -44 45 0
37 44 45 0
46 -14 0
46 -30 0
14 30 -46 0
-47 -39 0
-47 6 0
39 -6 47 0
-48 -47 0
-48 36 0
47 -36 48 0
-49 3 0
-49 31 0
-3 -31 49 0
-50 49 0
-50 13 0
-49 -13 50 0
-48 50 -51 0
48 -50 -51 0
-48 -50 51 0
48 50 51 0
52 46 0
52 -51 0
-46 51 -52 0
45 52 -53 0
-45 -52 -53 0
45 -52 53 0
-45 52 53 0
-18 53 -54 0
18 -53 -54 0
-18 -53 54 0
18 53 54 0
-11 -55 -56 0
11 55 -56 0
-11 55 56 0
11 -55 56 0
-57 -3 0
-57 1 0
3 -1 57 0
-55 13 -58 0
55 -13 -58 0
-55 -13 58 0
55 13 58 0
59 -29 0
59 10 0
29 -10 -59 0
-58 59 -60 0
58 -59 -60 0
-58 -59 60 0
58 59 60 0
61 57 0
61 60 0
-57 -60 -61 0
62 47 0
62 55 0
-47 -55 -62 0
-61 62 -63 0
61 -62 -63 0
-61 -62 63 0
61 62 63 0
64 39 0
64 -21 0
-39 21 -64 0
65 63 0
65 64 0
-63 -64 -65 0
25 23 -66 0
-25 -23 -66 0
25 -23 66 0
-25 23 66 0
-68 66 0
-68 67 0
-66 -67 68 0
-69 -65 0
-69 68 0
65 -68 69 0
70 56 0
70 69 0
-56 -69 -70 0
71 -7 0
71 12 0
7 -12 -71 0
-72 71 0
-72 31 0
-71 -31 72 0
-73 47 0
-73 -30 0
-47 30 73 0
74 -60 0
74 -73 0
60 73 -74 0
-75 72 0
-75 74 0
-72 -74 75 0
76 -23 0
76 38 0
23 -38 -76 0
-78 -76 0
-78 77 0
76 -77 78 0
79 -75 0
79 -78 0
75 78 -79 0
-70 79 -80 0
70 -79 -80 0
-70 -79 80 0
70 79 80 0
81 54 0
81 80 0
-54 -80 -81 0
32 -14 -82 0
-32 14 -82 0
32 14 82 0
-32 -14 82 0
83 82 0
83 11 0
-82 -11 -83 0
59 77 -84 0
-59 -77 -84 0
59 -77 84 0
-59 77 84 0
85 -84 0
85 4 0
84 -4 -85 0
86 83 0
86 85 0
-83 -85 -86 0
87 -38 0
87 -49 0
38 49 -87 0
39 87 -88 0
-39 -87 -88 0
39 -87 88 0
-39 87 88 0
-20 11 -89 0
20 -11 -89 0
-20 -11 89 0
20 11 89 0
90 88 0
90 -89 0
-88 89 -90 0
-91 87 0
-91 -2 0
-87 2 91 0
92 90 0
92 91 0
-90 -91 -92 0
93 -86 0
93 92 0
86 -92 -93 0
-94 81 0
-94 93 0
-81 -93 94 0
61 40 -95 0
-61 -40 -95 0
61 -40 95 0
-61 40 95 0
96 -38 0
96 31 0
38 -31 -96 0
97 -29 0
97 27 0
29 -27 -97 0
96 97 -98 0
-96 -97 -98 0
96 -97 98 0
-96 97 98 0
95 98 -99 0
-95 -98 -99 0
95 -98 99 0
-95 98 99 0
27 33 -100 0
-27 -33 -100 0
27 -33 100 0
-27 33 100 0
-27 -29 -101 0
27 29 -101 0
-27 29 101 0
27 -29 101 0
-100 101 -102 0
100 -101 -102 0
-100 -101 102 0
100 101 102 0
103 -57 0
103 -87 0
57 87 -103 0
-104 -102 0
-104 -103 0
102 103 104 0
105 99 0
105 -104 0
-99 104 -105 0
106 -21 0
106 71 0
21 -71 -106 0
-107 -9 0
-107 106 0
9 -106 107 0
108 -107 0
108 -34 0
107 34 -108 0
6 108 -109 0
-6 -108 -109 0
6 -108 109 0
-6 108 109 0
110 67 0
110 76 0
-67 -76 -110 0
111 109 0
111 110 0
-109 -110 -111 0
112 30 0
112 21 0
-30 -21 -112 0
113 112 0
113 -49 0
-112 49 -113 0
-111 113 -114 0
111 -113 -114 0
-111 -113 114 0
111 113 114 0
115 -105 0
115 -114 0
105 114 -115 0
116 -60 0
116 -107 0
60 107 -116 0
117 -8 0
117 97 0
8 -97 -117 0
118 -116 0
118 117 0
116 -117 -118 0
119 -82 0
119 117 0
82 -117 -119 0
-22 -97 -120 0
22 97 -120 0
-22 97 120 0
22 -97 120 0
-121 -119 0
-121 120 0
119 -120 121 0
-122 118 0
-122 -121 0
-118 121 122 0
123 33 0
123 59 0
-33 -59 -123 0
-112 -89 -124 0
112 89 -124 0
-112 89 124 0
112 -89 124 0
125 -123 0
125 124 0
123 -124 -125 0
126 30 0
126 47 0
-30 -47 -126 0
-4 2 -127 0
4 -2 -127 0
-4 -2 127 0
4 2 127 0
-128 127 0
-128 -35 0
-127 35 128 0
129 126 0
129 128 0
-126 -128 -129 0
-125 -129 -130 0
125 129 -130 0
-125 129 130 0
125 -129 130 0
131 21 0
131 -84 0
-21 84 -131 0
112 -107 -132 0
-112 107 -132 0
112 107 132 0
-112 -107 132 0
-133 112 0
-133 132 0
-112 -132 133 0
134 -8 0
134 -7 0
8 7 -134 0
135 58 0
135 134 0
-58 -134 -135 0
-136 8 0
-136 22 0
-8 -22 136 0
-135 136 -137 0
135 -136 -137 0
-135 -136 137 0
135 136 137 0
-138 -133 0
-138 -137 0
133 137 138 0
-139 -131 0
-139 -138 0
131 138 139 0
130 -139 -140 0
-130 139 -140 0
130 139 140 0
-130 -139 140 0
-122 -140 -141 0
122 140 -141 0
-122 140 141 0
122 -140 141 0
-142 -115 0
-142 141 0
115 -141 142 0
-127 26 -143 0
127 -26 -143 0
-127 -26 143 0
127 26 143 0
144 20 0
144 20 0
-20 -144 0
145 -32 0
145 -60 0
32 60 -145 0
-146 144 0
-146 145 0
-144 -145 146 0
-143 146 -147 0
143 -146 -147 0
-143 -146 147 0
143 146 147 0
148 -142 0
148 147 0
142 -147 -148 0
-149 -94 0
-149 148 0
94 -148 149 0
-44 28 -58 -49 0
141 -124 75 0
-14 -101 80 96 68 0
73 -43 0
115 -49 -56 -32 118 0
71 -87 0
59 -107 104 145 96 13 0
-56 -31 -95 0
62 97 65 -35 0
137 14 0
-83 -143 -127 -61 24 -98 0
17 26 -93 0
-30 70 -82 0
64 115 -134 -26 23 61 0
-70 -42 88 59 19 0
-35 74 13 0
-132 -122 -127 -49 48 -17 0
-84 141 -147 18 -92 -126 0
24 -9 2 -19 -76 0
-84 -77 42 0
88 -27 -32 -135 71 0
86 70 -142 127 0
93 -103 65 -38 -55 0
-71 83 20 0
-102 -45 0
139 113 0
45 -130 -31 -119 118 0
30 10 93 -36 0
142 -49 85 51 0
106 -125 0
32 -114 0
73 89 -67 83 61 33 0
73 110 9 135 0
-28 -108 20 126 -40 78 0
-61 38 -128 -73 0
57 26 140 65 0
109 -69 136 0
11 -138 119 -118 -106 41 0
10 -34 0
-19 123 -107 0
47 -20 0
9 13 135 -148 44 0
-148 33 -3 -93 -92 27 0
43 28 0
-94 -111 -67 0
-13 11 -125 -138 0
-112 24 -60 -38 0
60 -105 52 -107 71 54 0
-105 56 -9 -24 0
-147 -88 -112 108 -10 0
-45 -61 78 84 29 101 0
-147 79 27 0
113 10 0
9 -135 -68 14 -145 67 0
-10 -120 28 5 0
-128 93 -75 0
93 21 141 -121 23 2 0
50 21 -147 -52 12 0
28 131 93 104 71 100 0
124 -27 -112 0
139 49 140 65 50 0
-94 31 -43 -84 -6 -117 0
-86 -42 -44 0
82 81 94 0
-91 -19 -143 48 -67 0
-114 85 -110 -5 -21 -148 0
149 0
